p cnf 37 121
-3 1 0
-3 -2 0
-1 2 3 0
6 4 0
6 -5 0
-4 5 -6 0
8 -9 -10 0
-8 9 -10 0
8 9 10 0
-8 -9 10 0
-7 10 -11 0
7 -10 -11 0
-7 -10 11 0
7 10 11 0
12 6 0
12 11 0
-6 -11 -12 0
-13 -3 0
-13 12 0
3 -12 13 0
8 3 -14 0
-8 -3 -14 0
8 -3 14 0
-8 3 14 0
-15 7 0
-15 -14 0
-7 14 15 0
16 -5 0
16 -15 0
5 15 -16 0
16 -9 -17 0
-16 9 -17 0
16 9 17 0
-16 -9 17 0
-18 -1 0
-18 7 0
1 -7 18 0
-20 -2 -21 0
20 2 -21 0
-20 2 21 0
20 -2 21 0
22 19 0
22 -21 0
-19 21 -22 0
-23 8 0
-23 22 0
-8 -22 23 0
-23 3 -24 0
23 -3 -24 0
-23 -3 24 0
23 3 24 0
-25 18 0
-25 -24 0
-18 24 25 0
-17 -25 -26 0
17 25 -26 0
-17 25 26 0
17 -25 26 0
-13 26 -27 0
13 -26 -27 0
-13 -26 27 0
13 26 27 0
7 -28 -29 0
-7 28 -29 0
7 28 29 0
-7 -28 29 0
-30 2 0
-30 -22 0
-2 22 30 0
29 -30 -31 0
-29 30 -31 0
29 30 31 0
-29 -30 31 0
32 -27 0
32 31 0
27 -31 -32 0
2 -18 -33 0
-2 18 -33 0
2 18 33 0
-2 -18 33 0
-34 6 0
-34 -3 0
-6 3 34 0
-35 34 0
-35 -9 0
-34 9 35 0
-36 -33 0
-36 -35 0
33 35 36 0
37 32 0
37 -36 0
-32 36 -37 0
-18 -19 16 -22 0
8 -22 -4 10 0
-31 27 -5 -30 4 0
-17 2 -21 -36 14 -13 0
2 1 -7 -33 3 -29 0
-27 -15 12 11 26 0
-5 -8 0
-3 -23 -4 0
11 -29 30 -26 -3 0
26 36 0
-23 16 11 34 -8 -31 0
27 21 -10 29 1 0
23 16 0
30 11 -13 0
6 -11 0
-35 25 -4 7 2 0
-19 0
17 -27 9 34 13 0
21 32 -30 -37 0
25 19 -16 3 13 -30 0
-16 21 0
-17 -3 -2 0
7 -26 10 -11 0
-29 1 32 26 17 0
-14 -35 7 0
-7 15 0
18 -26 30 -36 -17 0
5 -30 0
37 0
